
Gurobi 10.0.3 (linux64, gurobi_cl) logging started Thu Nov  2 11:34:38 2023

Set parameter Username
Set parameter TimeLimit to value 3600
Set parameter LogFile to value "RCPSP_572.log"
Set parameter Threads to value 32
Academic license - for non-commercial use only - expires 2024-10-30
Using license file /home/jrivera6/gurobi-licenses/v1003/compute-0-34/gurobi.lic

Gurobi Optimizer version 10.0.3 build v10.0.3rc0 (linux64)
Copyright (c) 2023, Gurobi Optimization, LLC

Read MPS format model from file RCPSP_572.mps
Reading time = 0.02 seconds
RCPSP_572: 19624 rows, 7750 columns, 68299 nonzeros

CPU model: Intel(R) Xeon(R) Gold 6130 CPU @ 2.10GHz, instruction set [SSE2|AVX|AVX2|AVX512]
Thread count: 32 physical cores, 32 logical processors, using up to 32 threads

Optimize a model with 19624 rows, 7750 columns and 68299 nonzeros
Model fingerprint: 0xa6cf978d
Variable types: 62 continuous, 7688 integer (7688 binary)
Coefficient statistics:
  Matrix range     [1e+00, 4e+02]
  Objective range  [1e+00, 1e+00]
  Bounds range     [1e+00, 1e+00]
  RHS range        [1e+00, 4e+02]
Presolve removed 6562 rows and 2194 columns
Presolve time: 2.49s
Presolved: 13062 rows, 5556 columns, 47751 nonzeros
Variable types: 61 continuous, 5495 integer (5495 binary)

Root relaxation: objective 6.200000e+01, 2023 iterations, 0.09 seconds (0.04 work units)

    Nodes    |    Current Node    |     Objective Bounds      |     Work
 Expl Unexpl |  Obj  Depth IntInf | Incumbent    BestBd   Gap | It/Node Time

     0     0   62.00000    0   66          -   62.00000      -     -    3s
     0     0   62.00000    0  175          -   62.00000      -     -    5s
     0     0   62.00000    0  263          -   62.00000      -     -    5s
     0     0   62.00000    0   12          -   62.00000      -     -    7s
     0     0   62.00000    0   27          -   62.00000      -     -    7s
     0     0   62.00000    0   17          -   62.00000      -     -    8s
     0     0   62.00000    0   23          -   62.00000      -     -    8s
     0     0   62.00000    0   25          -   62.00000      -     -    9s
     0     0   62.00000    0   22          -   62.00000      -     -   10s
     0     0   62.00000    0   10          -   62.00000      -     -   11s
     0     0   62.00000    0   78          -   62.00000      -     -   11s
     0     0   62.00000    0   16          -   62.00000      -     -   12s
     0     0   62.00000    0  107          -   62.00000      -     -   12s
     0     0   62.00000    0    9          -   62.00000      -     -   14s
     0     0   62.00000    0    8          -   62.00000      -     -   14s
     0     0   62.00000    0    6          -   62.00000      -     -   15s
     0     0   62.00000    0   12          -   62.00000      -     -   15s
     0     0   62.00000    0    4          -   62.00000      -     -   16s
     0     0   62.00000    0   20          -   62.00000      -     -   16s
     0     0   62.00000    0   22          -   62.00000      -     -   18s
H    0     0                     353.0000000   62.00000  82.4%     -   18s
     0     0   62.00000    0    6  353.00000   62.00000  82.4%     -   18s
H    0     0                      73.0000000   62.00000  15.1%     -   22s
     0     0   62.00000    0   28   73.00000   62.00000  15.1%     -   31s
     0     0   62.00000    0  129   73.00000   62.00000  15.1%     -   39s
     0     0   62.00000    0   64   73.00000   62.00000  15.1%     -   43s
H    0     0                      72.0000000   62.00000  13.9%     -   54s
     0     0   62.00000    0   10   72.00000   62.00000  13.9%     -   59s
H    0     0                      63.0000000   62.00000  1.59%     -   60s
     0     0   62.00000    0   25   63.00000   62.00000  1.59%     -   61s
     0     0   62.00000    0  133   63.00000   62.00000  1.59%     -   63s
     0     0   62.00000    0    6   63.00000   62.00000  1.59%     -   70s
     0     0   62.00000    0   23   63.00000   62.00000  1.59%     -   74s
     0     0   62.00000    0    7   63.00000   62.00000  1.59%     -   80s
     0     0   62.00000    0    6   63.00000   62.00000  1.59%     -   81s
     0     0   62.00000    0    7   63.00000   62.00000  1.59%     -   82s
     0     0   62.00000    0    4   63.00000   62.00000  1.59%     -   86s
     0     0   62.00000    0    9   63.00000   62.00000  1.59%     -   91s
     0     0   62.00000    0    8   63.00000   62.00000  1.59%     -   92s
     0     0   62.00000    0    3   63.00000   62.00000  1.59%     -   98s
H    0     0                      62.0000000   62.00000  0.00%     -   99s
     0     0   62.00000    0    3   62.00000   62.00000  0.00%     -   99s

Cutting planes:
  Cover: 16
  Implied bound: 16
  Clique: 46
  MIR: 2
  RLT: 2
  Relax-and-lift: 4

Explored 1 nodes (42262 simplex iterations) in 99.64 seconds (7.40 work units)
Thread count was 32 (of 32 available processors)

Solution count 5: 62 63 72 ... 353

Optimal solution found (tolerance 1.00e-04)
Best objective 6.200000000000e+01, best bound 6.200000000000e+01, gap 0.0000%

Wrote result file 'RCPSP_572.sol'

